(set-logic HORN)
(set-info :source |
    Benchmark: C_VC
    Output by Princess (http://www.philipp.ruemmer.org/princess.shtml)
|)
(set-info :status unknown)
(declare-fun inv_main17 (Int Int Int Int Int) Bool)
(declare-fun inv_main7 (Int Int Int Int Int) Bool)
(assert (forall ((var0 Int) (var1 Int) (var2 Int) (var3 Int) (var4 Int)) (or (not (and (and (and (= 0 var2) (= 0 var3)) (= 0 var4)) (= 1 var1))) (inv_main7 var0 var2 var3 var4 var1))))
(assert (forall ((var0 Int) (var1 Int) (var2 Int) (var3 Int) (var4 Int)) (or (not (inv_main17 var0 var1 var4 var2 var3)) (inv_main7 var0 var1 var4 var2 var3))))
(assert (forall ((var0 Int) (var1 Int) (var2 Int) (var3 Int) (var4 Int) (var5 Int) (var6 Int)) (or (not (and (inv_main7 var2 var3 var6 var4 var5) (and (and (= (+ var0 (* (- 1) var5)) 1) (= (+ var1 (+ (* (- 1) var6) (* (- 1) var5))) 0)) (and (<= 0 (+ (- 1) (+ (* (- 1) var5) var2))) (<= 0 (+ (- 1) (+ (* (- 1) var2) var4))))))) (inv_main17 var2 var3 var1 var4 var0))))
(assert (forall ((var0 Int) (var1 Int) (var2 Int) (var3 Int) (var4 Int) (var5 Int) (var6 Int)) (or (not (and (inv_main7 var1 var3 var6 var4 var5) (and (and (= (+ var0 (* (- 1) var4)) 1) (= (+ var2 (+ (* (- 1) var3) (* (- 1) var4))) 0)) (and (<= 0 (+ (- 1) (+ var5 (* (- 1) var1)))) (<= 0 (+ (- 1) (+ var1 (* (- 1) var4)))))))) (inv_main17 var1 var2 var6 var0 var5))))
(assert (forall ((var0 Int) (var1 Int) (var2 Int) (var3 Int) (var4 Int) (var5 Int) (var6 Int) (var7 Int) (var8 Int)) (or (not (and (inv_main7 var0 var5 var8 var6 var7) (and (and (and (and (and (= (+ var4 (* (- 1) var7)) 1) (= (+ var3 (* (- 1) var6)) 1)) (= (+ var1 (+ (* (- 1) var8) (* (- 1) var7))) 0)) (= (+ var2 (+ (* (- 1) var5) (* (- 1) var6))) 0)) (not (= var7 var6))) (and (<= 0 (+ (* (- 1) var7) var0)) (<= 0 (+ var0 (* (- 1) var6))))))) (inv_main17 var0 var2 var1 var3 var4))))
(assert (forall ((var0 Int) (var1 Int) (var2 Int) (var3 Int) (var4 Int) (var5 Int) (var6 Int) (var7 Int) (var8 Int)) (or (not (and (inv_main7 var0 var5 var8 var6 var7) (and (and (and (and (and (= (+ var4 (* (- 1) var7)) 1) (= (+ var3 (* (- 1) var6)) 1)) (= (+ var1 (+ (* (- 1) var8) (* (- 1) var7))) 0)) (= (+ var2 (+ (* (- 1) var5) (* (- 1) var6))) 0)) (not (= var0 var6))) (and (<= 0 (+ (* (- 1) var7) var0)) (<= 0 (+ var0 (* (- 1) var6))))))) (inv_main17 var0 var2 var1 var3 var4))))
(assert (forall ((var0 Int) (var1 Int) (var2 Int) (var3 Int) (var4 Int)) (not (and (inv_main17 var0 var1 var4 var2 var3) (not (= var4 (+ var1 var2)))))))
(check-sat)
